(set-info :smt-lib-version 2.7)
(set-logic QF_EIA)
(set-info :source |
Generated by: Florian Frohn
Generator: LoAT
Application: proving lower bounds on the worst-case runtime of transition systems
Target solver: SwInE
Time limit: 1.0
Benchmarks generated by the verification tool LoAT to evaluate the SMT solver
SwInE. We extracted all benchmarks with exponentiation that were generated by
LoAT when analyzing the examples from the category LIA-Lin (linear CHCs with
linear integer arithmetic) of the CHC competitions 2022 and 2023, and when
analyzing the examples from the categories "Termination of Integer Transition
Systems" and "Complexity of Integer Transition Systems" of the Termination and
Complexity Competition 2024. From the entire set, we selected those where
* SwInE v0.1.0 or SwInE-Z3 v0.1.2 failed or needed more than 1 second, or
* SwInE-Z3 v0.1.2 failed without phasing, a technique to prevent SwInE from
  computing with huge constants (described here
  https://arxiv.org/abs/2502.04761)
If several selected benchmarks only differed in lines not containing
exponentiation, we kept only one of them. This benchmark is known to be
satisfiable with the slightly different semantics of exponentiation used by the
versions of SwInE mentioned above.
|)
(set-info :license "https://creativecommons.org/licenses/by/4.0/")
(set-info :category "industrial")
(set-info :status unknown)

(declare-fun i1 () Int)
(declare-fun it1 () Int)
(declare-fun i2 () Int)
(declare-fun it2 () Int)
(declare-fun i3 () Int)
(declare-fun it3 () Int)
(declare-fun it4 () Int)
(declare-fun i4 () Int)
(declare-fun i5 () Int)
(declare-fun it5 () Int)
(declare-fun i6 () Int)
(declare-fun it6 () Int)
(declare-fun it73 () Int)
(declare-fun it48 () Int)
(declare-fun it13 () Int)
(declare-fun it76 () Int)
(declare-fun it77 () Int)
(declare-fun it78 () Int)
(declare-fun it79 () Int)
(declare-fun it80 () Int)
(declare-fun it81 () Int)
(declare-fun it84 () Int)
(declare-fun it132 () Int)
(declare-fun it133 () Int)
(declare-fun it134 () Int)
(declare-fun it135 () Int)
(declare-fun it136 () Int)
(declare-fun it137 () Int)
(declare-fun it83 () Int)
(assert (= (+ i1 (- 1)) 0))
(assert (= (+ it1 (- 2)) 0))
(assert (= (+ it2 (* i2 (- 1)) (- 1)) 0))
(assert (= (+ it3 (* i3 (- 1))) 0))
(assert (= (+ (* i4 (- 1)) it4) 0))
(assert (= (+ it5 (* i5 (- 1))) 0))
(assert (= (+ it6 (* i6 (- 1))) 0))
(assert (let ((a!1 (+ (* it48 (- 2))
              (* it48 (+ it73 (- 1)) (- 2))
              it3
              (* (+ it73 (- 1)) it13 (- 2))
              (* it13 (- 2))))
      (a!2 (+ (* it48 (+ it73 (- 1)) (- 2))
              it3
              (* (+ it73 (- 1)) it13 (- 2))
              (* it13 (- 2)))))
  (and (> (+ a!1 1) 0)
       (> (+ a!2 2) 0)
       (> (+ (* it48 (- 2)) it3 (* it13 (- 2)) 1) 0)
       (>= (+ it13 (- 1)) 0)
       (> (+ a!2 1) 0)
       (>= (+ it1 (- 2)) 0)
       (> (+ a!1 2) 0)
       (>= (+ (* it1 (- 1)) 2) 0)
       (>= (+ it48 (- 1)) 0)
       (>= (+ it73 (- 1)) 0))))
(assert (= (+ it76 (* it1 (- 1))) 0))
(assert (= (+ it77 (* it2 (- 1)) (* it48 it73 (- 2)) (* it73 it13 (- 2))) 0))
(assert (= (+ (* it48 it73 2) (* it3 (- 1)) (* it73 it13 2) it78) 0))
(assert (let ((a!1 (* (** (- 1) (+ (* it48 it73) (* it73 it13)))
              (+ 0 it4)
              (+ 0 (- 1)))))
  (= (+ a!1 (+ 0 it79)) (+ 0 0))))
(assert (let ((a!1 (* (+ 0 it5)
              (** (- 1) (+ (* it48 it73) (* it73 it13)))
              (+ 0 (- 1)))))
  (= (+ (+ 0 it80) a!1) (+ 0 0))))
(assert (let ((a!1 (+ (* (* (** it48 2) (** it73 2)) (+ 0 it3) (+ 0 12))
              (* (* (** it48 2) (** it73 2)) (+ 0 6))
              (* (** it73 2) (+ 0 it3) (** it13 2) (+ 0 12))
              (+ 0 (* (* it48 it73) it3 (- 6)))
              (* (* (+ 0 it48) (** it73 2))
                 (+ 0 it3)
                 (+ 0 it13)
                 (+ 0 24))
              (* (** it73 2) (** it13 2) (+ 0 6))
              (* (** it73 3) (** it13 3) (+ 0 (- 8)))
              (* (+ 0 it48) (** it73 3) (** it13 2) (+ 0 (- 24)))
              (* (+ 0 it73) (** it3 2) (+ 0 it13) (+ 0 (- 6)))
              (* (+ 0 (* it48 it73)) (** it3 2) (+ 0 (- 6)))
              (* (* (+ 0 it48) (** it73 2)) (+ 0 it13) (+ 0 12))
              (* (** it48 3) (** it73 3) (+ 0 (- 8)))
              (+ 0 (* it6 (- 3)))
              (+ 0 (* (* it48 it73) (- 1)))
              (+ 0 (* it81 3))
              (+ 0 (* it73 it13 (- 1)))
              (+ 0 (* it73 it3 it13 (- 6)))
              (* (** it48 2) (** it73 3) (+ 0 it13) (+ 0 (- 24))))))
  (= a!1 (+ 0 0))))
(assert (let ((a!1 (> (+ (+ (* it84 (- 2)) it78) 2) 0))
      (a!2 (> (+ (+ (* it84 (- 2)) it78) 1) 0)))
  (and a!1
       (>= (+ (* it76 (- 1)) 2) 0)
       (>= (+ it84 (- 1)) 0)
       (>= (+ it76 (- 2)) 0)
       a!2)))
(assert (= (+ it132 (* it76 (- 1))) 0))
(assert (= (+ (* it77 (- 1)) (* it84 (- 2)) it133) 0))
(assert (= (+ (* it84 2) (* it78 (- 1)) it134) 0))
(assert (= (+ (+ 0 it135) (* (** (- 1) it84) (+ 0 it79) (+ 0 (- 1))))
   (+ 0 0)))
(assert (= (+ (* (+ 0 it80) (** (- 1) it84) (+ 0 (- 1))) (+ 0 it136))
   (+ 0 0)))
(assert (= (+ (* (** it84 2) (+ 0 it78) (+ 0 12))
      (* (** it84 3) (+ 0 (- 8)))
      (+ 0 (* it84 (- 1)))
      (+ 0 (* it81 (- 3)))
      (* (** it84 2) (+ 0 6))
      (* (+ 0 it84) (** it78 2) (+ 0 (- 6)))
      (+ 0 (* it84 it78 (- 6)))
      (+ 0 (* it137 3)))
   (+ 0 0)))
(assert (let ((a!1 (> (+ (+ (* it83 (- 2)) it134) 1) 0))
      (a!2 (> (+ (+ (* it83 (- 2)) it134) 2) 0)))
  (and (>= (+ it83 (- 1)) 0)
       (>= (+ (* it132 (- 1)) 2) 0)
       a!1
       (>= (+ it132 (- 2)) 0)
       a!2)))
(check-sat)
(exit)
